Route #1: 50 84 49 76 74 75 73 39 77 30 31 29 83 47 41 40 17 20 18 19 23 16 63 25 22 14 15 51 2 6 3 52 5 4 1 55 58 60 61 56 57 12 59 27 70 69 28 62 24 21 64 42 44 79 80 81 45 82 43 89 85
Route #2: 87 34 33 88 86 48 78 66 67 26 65 68 9 54 7 11 53 10 8 13 36 35 38 32 37 72 71 46
Cost 3861.18
